1474265
22 19 8375
19 20 59143
20 23 123359
23 3 112203
3 7 5029
7 27 7370
27 8 98591
8 12 61690
12 10 116497
10 17 52694
17 24 276644
24 1 54636
1 11 218898
11 16 17050
16 29 55904
29 4 53285
4 28 9482
28 2 6275
2 30 6204
30 6 7944
6 21 25266
21 15 19591
15 9 13951
9 18 9870
18 25 7368
25 13 1644
13 5 6994
5 14 14272
14 26 12452
26 22 11584
